10  5
 3  3  0  8  2  8  1  8  4  8  16 183   5
 1  6  0  9  2  9  3  4  4 14  31 180  10
 0  6  3  6  2 15  1  6  4 11  32 186   5
 3 11  1  5  2 12  0  5  4 11  17 190  10
 0  5  1  6  2 12  3  8  4  8  19 160   5
 0  7  1  7  2 16  3  8  4 15  38 188   5
 3  7  1 10  2 12  0  6  4 11  15 185   5
 0  4  3  4  2 12  1  6  4 10  34 181  10
 1  6  3  3  2  9  0  9  4  8  27 181   5
 1  4  3 10  2 16  0 10  4 14  38 196  10
